70
1 0 34
2 0 8
2 1 31
3 0 24
3 1 32
3 2 17
4 0 9
4 1 10
4 2 25
4 3 15
5 0 27
5 1 15
5 2 9
5 3 23
5 4 5
6 0 26
6 1 29
6 2 5
6 3 25
6 4 23
6 5 16
7 0 14
7 1 14
7 2 38
7 3 19
7 4 29
7 5 36
7 6 34
8 0 39
8 1 38
8 2 27
8 3 10
8 4 5
8 5 25
8 6 13
8 7 16
9 0 18
9 1 9
9 2 13
9 3 32
9 4 32
9 5 37
9 6 10
9 7 3
9 8 7
10 0 8
10 1 17
10 2 17
10 3 36
10 4 12
10 5 40
10 6 1
10 7 11
10 8 10
10 9 10
11 0 37
11 1 11
11 2 15
11 3 16
11 4 8
11 5 17
11 6 5
11 7 25
11 8 14
11 9 8
11 10 23
12 0 1
12 1 9
12 2 25
12 3 24
12 4 14
12 5 40
12 6 28
12 7 24
12 8 5
12 9 40
12 10 35
12 11 35
13 0 28
13 1 15
13 2 37
13 3 9
13 4 19
13 5 34
13 6 32
13 7 35
13 8 39
13 9 2
13 10 38
13 11 26
13 12 3
14 0 17
14 1 2
14 2 39
14 3 2
14 4 12
14 5 12
14 6 15
14 7 18
14 8 40
14 9 39
14 10 35
14 11 1
14 12 27
14 13 9
15 0 19
15 1 1
15 2 26
15 3 32
15 4 31
15 5 36
15 6 13
15 7 24
15 8 23
15 9 38
15 10 29
15 11 1
15 12 25
15 13 15
15 14 15
16 0 20
16 1 37
16 2 6
16 3 11
16 4 26
16 5 37
16 6 22
16 7 39
16 8 17
16 9 16
16 10 31
16 11 32
16 12 13
16 13 19
16 14 32
16 15 11
17 0 10
17 1 26
17 2 30
17 3 32
17 4 15
17 5 17
17 6 29
17 7 14
17 8 36
17 9 38
17 10 36
17 11 33
17 12 37
17 13 29
17 14 40
17 15 36
17 16 19
18 0 19
18 1 3
18 2 10
18 3 28
18 4 25
18 5 18
18 6 32
18 7 16
18 8 37
18 9 35
18 10 22
18 11 39
18 12 15
18 13 39
18 14 20
18 15 34
18 16 38
18 17 17
19 0 10
19 1 13
19 2 21
19 3 32
19 4 20
19 5 12
19 6 27
19 7 26
19 8 19
19 9 14
19 10 38
19 11 19
19 12 11
19 13 9
19 14 5
19 15 25
19 16 6
19 17 12
19 18 23
20 0 8
20 1 23
20 2 4
20 3 29
20 4 21
20 5 27
20 6 27
20 7 37
20 8 37
20 9 3
20 10 16
20 11 24
20 12 22
20 13 19
20 14 23
20 15 15
20 16 32
20 17 14
20 18 33
20 19 14
21 0 18
21 1 33
21 2 13
21 3 5
21 4 17
21 5 14
21 6 38
21 7 37
21 8 3
21 9 28
21 10 24
21 11 35
21 12 10
21 13 37
21 14 23
21 15 24
21 16 20
21 17 28
21 18 37
21 19 17
21 20 4
22 0 9
22 1 28
22 2 37
22 3 7
22 4 7
22 5 25
22 6 29
22 7 25
22 8 34
22 9 14
22 10 19
22 11 27
22 12 21
22 13 3
22 14 35
22 15 29
22 16 38
22 17 37
22 18 32
22 19 14
22 20 13
22 21 30
23 0 33
23 1 19
23 2 8
23 3 9
23 4 10
23 5 32
23 6 40
23 7 5
23 8 32
23 9 17
23 10 20
23 11 10
23 12 36
23 13 6
23 14 5
23 15 24
23 16 13
23 17 21
23 18 32
23 19 24
23 20 10
23 21 38
23 22 11
24 0 15
24 1 13
24 2 31
24 3 20
24 4 23
24 5 9
24 6 7
24 7 29
24 8 4
24 9 23
24 10 5
24 11 34
24 12 36
24 13 30
24 14 31
24 15 14
24 16 24
24 17 8
24 18 7
24 19 13
24 20 11
24 21 34
24 22 6
24 23 24
25 0 17
25 1 26
25 2 13
25 3 24
25 4 15
25 5 5
25 6 14
25 7 25
25 8 21
25 9 27
25 10 17
25 11 24
25 12 29
25 13 32
25 14 11
25 15 21
25 16 17
25 17 33
25 18 2
25 19 15
25 20 7
25 21 12
25 22 9
25 23 28
25 24 35
26 0 32
26 1 16
26 2 28
26 3 39
26 4 5
26 5 36
26 6 9
26 7 40
26 8 20
26 9 20
26 10 34
26 11 29
26 12 18
26 13 22
26 14 21
26 15 22
26 16 35
26 17 12
26 18 32
26 19 29
26 20 2
26 21 17
26 22 39
26 23 1
26 24 14
26 25 36
27 0 27
27 1 14
27 2 34
27 3 27
27 4 28
27 5 35
27 6 11
27 7 34
27 8 35
27 9 25
27 10 30
27 11 15
27 12 22
27 13 12
27 14 27
27 15 16
27 16 4
27 17 3
27 18 7
27 19 36
27 20 2
27 21 17
27 22 12
27 23 37
27 24 8
27 25 25
27 26 38
28 0 30
28 1 22
28 2 36
28 3 36
28 4 11
28 5 1
28 6 29
28 7 32
28 8 18
28 9 19
28 10 35
28 11 23
28 12 12
28 13 37
28 14 31
28 15 4
28 16 33
28 17 27
28 18 25
28 19 25
28 20 14
28 21 14
28 22 15
28 23 20
28 24 29
28 25 40
28 26 7
28 27 16
29 0 33
29 1 3
29 2 8
29 3 25
29 4 32
29 5 26
29 6 35
29 7 24
29 8 31
29 9 18
29 10 30
29 11 21
29 12 33
29 13 7
29 14 37
29 15 23
29 16 25
29 17 21
29 18 14
29 19 20
29 20 3
29 21 40
29 22 26
29 23 6
29 24 34
29 25 36
29 26 12
29 27 22
29 28 12
30 0 23
30 1 2
30 2 15
30 3 30
30 4 23
30 5 14
30 6 1
30 7 26
30 8 12
30 9 33
30 10 31
30 11 12
30 12 23
30 13 4
30 14 9
30 15 8
30 16 29
30 17 30
30 18 28
30 19 38
30 20 19
30 21 34
30 22 37
30 23 25
30 24 30
30 25 27
30 26 40
30 27 27
30 28 34
30 29 14
31 0 36
31 1 9
31 2 3
31 3 25
31 4 30
31 5 32
31 6 16
31 7 40
31 8 23
31 9 7
31 10 28
31 11 29
31 12 21
31 13 4
31 14 7
31 15 36
31 16 18
31 17 12
31 18 18
31 19 5
31 20 23
31 21 36
31 22 20
31 23 21
31 24 26
31 25 29
31 26 30
31 27 29
31 28 22
31 29 5
31 30 33
32 0 3
32 1 19
32 2 14
32 3 20
32 4 3
32 5 7
32 6 22
32 7 15
32 8 17
32 9 33
32 10 7
32 11 37
32 12 37
32 13 16
32 14 40
32 15 35
32 16 35
32 17 30
32 18 10
32 19 27
32 20 33
32 21 27
32 22 23
32 23 30
32 24 19
32 25 36
32 26 27
32 27 2
32 28 28
32 29 18
32 30 3
32 31 23
33 0 7
33 1 37
33 2 5
33 3 9
33 4 9
33 5 37
33 6 12
33 7 9
33 8 14
33 9 3
33 10 18
33 11 24
33 12 9
33 13 4
33 14 20
33 15 32
33 16 18
33 17 17
33 18 32
33 19 20
33 20 1
33 21 2
33 22 37
33 23 23
33 24 33
33 25 20
33 26 36
33 27 22
33 28 23
33 29 13
33 30 8
33 31 31
33 32 25
34 0 22
34 1 26
34 2 25
34 3 28
34 4 26
34 5 4
34 6 4
34 7 6
34 8 4
34 9 1
34 10 23
34 11 1
34 12 3
34 13 40
34 14 9
34 15 1
34 16 3
34 17 18
34 18 12
34 19 8
34 20 36
34 21 29
34 22 7
34 23 36
34 24 22
34 25 3
34 26 26
34 27 22
34 28 14
34 29 6
34 30 20
34 31 37
34 32 31
34 33 33
35 0 33
35 1 8
35 2 2
35 3 1
35 4 12
35 5 35
35 6 29
35 7 14
35 8 22
35 9 24
35 10 6
35 11 35
35 12 9
35 13 40
35 14 15
35 15 24
35 16 21
35 17 18
35 18 10
35 19 34
35 20 6
35 21 15
35 22 3
35 23 16
35 24 39
35 25 7
35 26 39
35 27 23
35 28 39
35 29 9
35 30 32
35 31 24
35 32 11
35 33 21
35 34 18
36 0 10
36 1 40
36 2 24
36 3 23
36 4 14
36 5 27
36 6 3
36 7 13
36 8 28
36 9 15
36 10 40
36 11 23
36 12 28
36 13 12
36 14 25
36 15 27
36 16 14
36 17 12
36 18 17
36 19 26
36 20 24
36 21 39
36 22 19
36 23 24
36 24 18
36 25 10
36 26 17
36 27 17
36 28 1
36 29 15
36 30 32
36 31 21
36 32 11
36 33 29
36 34 16
36 35 25
37 0 25
37 1 14
37 2 28
37 3 10
37 4 14
37 5 13
37 6 40
37 7 12
37 8 19
37 9 2
37 10 16
37 11 34
37 12 26
37 13 7
37 14 36
37 15 5
37 16 8
37 17 22
37 18 10
37 19 4
37 20 7
37 21 32
37 22 16
37 23 21
37 24 19
37 25 11
37 26 26
37 27 35
37 28 1
37 29 9
37 30 26
37 31 39
37 32 26
37 33 28
37 34 1
37 35 1
37 36 8
38 0 21
38 1 23
38 2 6
38 3 39
38 4 8
38 5 24
38 6 11
38 7 30
38 8 31
38 9 17
38 10 8
38 11 26
38 12 32
38 13 1
38 14 27
38 15 25
38 16 8
38 17 4
38 18 32
38 19 29
38 20 14
38 21 11
38 22 32
38 23 1
38 24 37
38 25 2
38 26 16
38 27 36
38 28 17
38 29 39
38 30 30
38 31 11
38 32 35
38 33 34
38 34 14
38 35 32
38 36 32
38 37 5
39 0 37
39 1 11
39 2 7
39 3 24
39 4 6
39 5 18
39 6 25
39 7 17
39 8 12
39 9 19
39 10 31
39 11 31
39 12 16
39 13 10
39 14 39
39 15 26
39 16 35
39 17 23
39 18 29
39 19 36
39 20 1
39 21 38
39 22 11
39 23 1
39 24 12
39 25 15
39 26 13
39 27 38
39 28 16
39 29 10
39 30 9
39 31 13
39 32 34
39 33 26
39 34 9
39 35 8
39 36 18
39 37 15
39 38 15
40 0 4
40 1 23
40 2 10
40 3 14
40 4 2
40 5 24
40 6 10
40 7 7
40 8 30
40 9 23
40 10 34
40 11 24
40 12 8
40 13 3
40 14 30
40 15 34
40 16 16
40 17 34
40 18 11
40 19 26
40 20 34
40 21 30
40 22 19
40 23 32
40 24 2
40 25 38
40 26 16
40 27 9
40 28 9
40 29 15
40 30 21
40 31 20
40 32 5
40 33 9
40 34 18
40 35 29
40 36 5
40 37 18
40 38 33
40 39 9
41 0 23
41 1 3
41 2 4
41 3 11
41 4 31
41 5 16
41 6 27
41 7 7
41 8 9
41 9 25
41 10 33
41 11 36
41 12 30
41 13 18
41 14 26
41 15 17
41 16 31
41 17 19
41 18 4
41 19 18
41 20 7
41 21 32
41 22 23
41 23 11
41 24 39
41 25 34
41 26 35
41 27 20
41 28 39
41 29 17
41 30 8
41 31 14
41 32 15
41 33 28
41 34 35
41 35 34
41 36 21
41 37 9
41 38 29
41 39 15
41 40 26
42 0 20
42 1 8
42 2 13
42 3 6
42 4 33
42 5 1
42 6 12
42 7 33
42 8 34
42 9 27
42 10 40
42 11 3
42 12 30
42 13 37
42 14 13
42 15 28
42 16 22
42 17 22
42 18 24
42 19 17
42 20 4
42 21 33
42 22 15
42 23 35
42 24 31
42 25 1
42 26 19
42 27 19
42 28 30
42 29 27
42 30 13
42 31 38
42 32 29
42 33 38
42 34 32
42 35 39
42 36 4
42 37 11
42 38 21
42 39 22
42 40 7
42 41 21
43 0 12
43 1 30
43 2 40
43 3 31
43 4 18
43 5 7
43 6 23
43 7 4
43 8 2
43 9 13
43 10 30
43 11 21
43 12 16
43 13 11
43 14 7
43 15 38
43 16 1
43 17 1
43 18 35
43 19 9
43 20 13
43 21 34
43 22 19
43 23 8
43 24 24
43 25 34
43 26 1
43 27 19
43 28 33
43 29 14
43 30 39
43 31 24
43 32 31
43 33 37
43 34 37
43 35 15
43 36 5
43 37 8
43 38 1
43 39 30
43 40 22
43 41 30
43 42 3
44 0 28
44 1 15
44 2 22
44 3 39
44 4 32
44 5 29
44 6 39
44 7 30
44 8 9
44 9 30
44 10 21
44 11 25
44 12 33
44 13 40
44 14 3
44 15 27
44 16 15
44 17 5
44 18 40
44 19 34
44 20 29
44 21 25
44 22 15
44 23 39
44 24 5
44 25 11
44 26 27
44 27 17
44 28 21
44 29 7
44 30 5
44 31 34
44 32 19
44 33 33
44 34 20
44 35 7
44 36 21
44 37 34
44 38 35
44 39 22
44 40 27
44 41 28
44 42 34
44 43 13
45 0 24
45 1 1
45 2 38
45 3 36
45 4 17
45 5 9
45 6 28
45 7 3
45 8 22
45 9 15
45 10 5
45 11 15
45 12 31
45 13 34
45 14 27
45 15 18
45 16 19
45 17 39
45 18 14
45 19 21
45 20 31
45 21 22
45 22 40
45 23 11
45 24 3
45 25 12
45 26 1
45 27 1
45 28 3
45 29 26
45 30 18
45 31 27
45 32 13
45 33 39
45 34 34
45 35 7
45 36 6
45 37 19
45 38 10
45 39 13
45 40 36
45 41 19
45 42 21
45 43 33
45 44 21
46 0 21
46 1 29
46 2 22
46 3 28
46 4 29
46 5 3
46 6 36
46 7 24
46 8 6
46 9 3
46 10 2
46 11 24
46 12 15
46 13 25
46 14 9
46 15 16
46 16 5
46 17 40
46 18 15
46 19 1
46 20 8
46 21 15
46 22 5
46 23 2
46 24 20
46 25 8
46 26 12
46 27 30
46 28 7
46 29 21
46 30 8
46 31 9
46 32 13
46 33 35
46 34 25
46 35 27
46 36 18
46 37 26
46 38 35
46 39 4
46 40 33
46 41 5
46 42 1
46 43 22
46 44 11
46 45 4
47 0 6
47 1 15
47 2 14
47 3 10
47 4 18
47 5 3
47 6 26
47 7 21
47 8 8
47 9 38
47 10 28
47 11 2
47 12 16
47 13 23
47 14 36
47 15 29
47 16 40
47 17 21
47 18 13
47 19 36
47 20 27
47 21 9
47 22 10
47 23 21
47 24 37
47 25 31
47 26 37
47 27 1
47 28 13
47 29 35
47 30 37
47 31 3
47 32 16
47 33 25
47 34 36
47 35 11
47 36 32
47 37 13
47 38 24
47 39 35
47 40 17
47 41 3
47 42 1
47 43 14
47 44 11
47 45 13
47 46 6
48 0 21
48 1 11
48 2 40
48 3 10
48 4 19
48 5 18
48 6 32
48 7 30
48 8 8
48 9 38
48 10 23
48 11 26
48 12 12
48 13 8
48 14 5
48 15 22
48 16 23
48 17 31
48 18 29
48 19 13
48 20 23
48 21 37
48 22 15
48 23 13
48 24 29
48 25 37
48 26 6
48 27 23
48 28 37
48 29 28
48 30 27
48 31 40
48 32 18
48 33 4
48 34 13
48 35 8
48 36 9
48 37 3
48 38 25
48 39 39
48 40 21
48 41 31
48 42 6
48 43 28
48 44 12
48 45 28
48 46 26
48 47 10
49 0 10
49 1 40
49 2 22
49 3 35
49 4 11
49 5 21
49 6 24
49 7 28
49 8 8
49 9 28
49 10 30
49 11 14
49 12 37
49 13 40
49 14 9
49 15 35
49 16 3
49 17 10
49 18 20
49 19 9
49 20 39
49 21 33
49 22 32
49 23 33
49 24 29
49 25 37
49 26 36
49 27 37
49 28 13
49 29 16
49 30 30
49 31 33
49 32 19
49 33 17
49 34 7
49 35 5
49 36 7
49 37 9
49 38 15
49 39 34
49 40 19
49 41 6
49 42 8
49 43 30
49 44 3
49 45 34
49 46 21
49 47 1
49 48 12
50 0 38
50 1 36
50 2 2
50 3 36
50 4 23
50 5 21
50 6 34
50 7 27
50 8 8
50 9 9
50 10 1
50 11 34
50 12 40
50 13 34
50 14 12
50 15 21
50 16 20
50 17 11
50 18 25
50 19 4
50 20 10
50 21 8
50 22 36
50 23 37
50 24 36
50 25 38
50 26 14
50 27 33
50 28 36
50 29 14
50 30 18
50 31 22
50 32 18
50 33 17
50 34 28
50 35 28
50 36 28
50 37 5
50 38 35
50 39 2
50 40 14
50 41 23
50 42 5
50 43 21
50 44 40
50 45 22
50 46 27
50 47 28
50 48 26
50 49 6
51 0 22
51 1 35
51 2 37
51 3 36
51 4 19
51 5 9
51 6 12
51 7 23
51 8 21
51 9 19
51 10 15
51 11 30
51 12 10
51 13 34
51 14 26
51 15 32
51 16 8
51 17 25
51 18 20
51 19 17
51 20 23
51 21 14
51 22 31
51 23 31
51 24 20
51 25 22
51 26 12
51 27 39
51 28 18
51 29 21
51 30 32
51 31 36
51 32 13
51 33 21
51 34 21
51 35 29
51 36 22
51 37 23
51 38 6
51 39 2
51 40 4
51 41 11
51 42 33
51 43 15
51 44 23
51 45 40
51 46 37
51 47 22
51 48 4
51 49 32
51 50 3
52 0 28
52 1 10
52 2 9
52 3 5
52 4 39
52 5 7
52 6 25
52 7 38
52 8 30
52 9 18
52 10 35
52 11 2
52 12 24
52 13 17
52 14 22
52 15 32
52 16 21
52 17 36
52 18 33
52 19 14
52 20 33
52 21 2
52 22 30
52 23 28
52 24 17
52 25 2
52 26 29
52 27 21
52 28 13
52 29 13
52 30 13
52 31 31
52 32 38
52 33 17
52 34 20
52 35 39
52 36 37
52 37 27
52 38 11
52 39 30
52 40 10
52 41 14
52 42 6
52 43 13
52 44 16
52 45 32
52 46 36
52 47 27
52 48 40
52 49 38
52 50 23
52 51 24
53 0 1
53 1 1
53 2 26
53 3 2
53 4 38
53 5 22
53 6 35
53 7 20
53 8 37
53 9 26
53 10 14
53 11 1
53 12 39
53 13 21
53 14 16
53 15 19
53 16 6
53 17 23
53 18 34
53 19 36
53 20 28
53 21 16
53 22 16
53 23 3
53 24 33
53 25 31
53 26 10
53 27 37
53 28 25
53 29 11
53 30 19
53 31 38
53 32 23
53 33 8
53 34 11
53 35 6
53 36 38
53 37 34
53 38 22
53 39 4
53 40 20
53 41 21
53 42 13
53 43 34
53 44 24
53 45 20
53 46 29
53 47 2
53 48 3
53 49 8
53 50 34
53 51 28
53 52 16
54 0 40
54 1 22
54 2 37
54 3 28
54 4 20
54 5 5
54 6 32
54 7 4
54 8 14
54 9 9
54 10 22
54 11 16
54 12 29
54 13 21
54 14 9
54 15 21
54 16 9
54 17 10
54 18 28
54 19 28
54 20 21
54 21 6
54 22 25
54 23 34
54 24 20
54 25 38
54 26 40
54 27 5
54 28 12
54 29 36
54 30 8
54 31 34
54 32 20
54 33 20
54 34 10
54 35 23
54 36 30
54 37 3
54 38 27
54 39 11
54 40 8
54 41 34
54 42 11
54 43 21
54 44 24
54 45 5
54 46 1
54 47 3
54 48 6
54 49 40
54 50 7
54 51 37
54 52 9
54 53 12
55 0 27
55 1 39
55 2 22
55 3 14
55 4 8
55 5 38
55 6 27
55 7 3
55 8 30
55 9 35
55 10 28
55 11 10
55 12 39
55 13 27
55 14 21
55 15 30
55 16 31
55 17 16
55 18 39
55 19 31
55 20 17
55 21 10
55 22 5
55 23 30
55 24 21
55 25 17
55 26 40
55 27 26
55 28 32
55 29 12
55 30 29
55 31 37
55 32 40
55 33 31
55 34 5
55 35 11
55 36 27
55 37 24
55 38 33
55 39 37
55 40 32
55 41 33
55 42 25
55 43 5
55 44 3
55 45 4
55 46 26
55 47 7
55 48 30
55 49 12
55 50 30
55 51 40
55 52 9
55 53 15
55 54 27
56 0 5
56 1 21
56 2 39
56 3 23
56 4 32
56 5 29
56 6 39
56 7 13
56 8 8
56 9 33
56 10 25
56 11 39
56 12 10
56 13 16
56 14 23
56 15 28
56 16 29
56 17 21
56 18 28
56 19 4
56 20 37
56 21 14
56 22 4
56 23 23
56 24 34
56 25 14
56 26 19
56 27 40
56 28 12
56 29 28
56 30 9
56 31 15
56 32 13
56 33 16
56 34 36
56 35 36
56 36 7
56 37 31
56 38 9
56 39 7
56 40 9
56 41 14
56 42 27
56 43 24
56 44 3
56 45 33
56 46 5
56 47 8
56 48 22
56 49 17
56 50 12
56 51 18
56 52 2
56 53 39
56 54 1
56 55 36
57 0 35
57 1 5
57 2 12
57 3 16
57 4 14
57 5 7
57 6 37
57 7 24
57 8 32
57 9 29
57 10 8
57 11 30
57 12 26
57 13 40
57 14 26
57 15 1
57 16 15
57 17 14
57 18 3
57 19 39
57 20 2
57 21 22
57 22 12
57 23 38
57 24 20
57 25 38
57 26 20
57 27 6
57 28 25
57 29 13
57 30 28
57 31 3
57 32 6
57 33 40
57 34 6
57 35 19
57 36 35
57 37 1
57 38 20
57 39 35
57 40 22
57 41 34
57 42 1
57 43 19
57 44 18
57 45 16
57 46 11
57 47 29
57 48 16
57 49 35
57 50 39
57 51 11
57 52 4
57 53 3
57 54 5
57 55 37
57 56 34
58 0 13
58 1 6
58 2 19
58 3 31
58 4 17
58 5 16
58 6 2
58 7 20
58 8 2
58 9 23
58 10 6
58 11 31
58 12 8
58 13 2
58 14 12
58 15 14
58 16 27
58 17 25
58 18 18
58 19 12
58 20 20
58 21 28
58 22 39
58 23 21
58 24 34
58 25 35
58 26 16
58 27 39
58 28 15
58 29 31
58 30 3
58 31 5
58 32 2
58 33 22
58 34 6
58 35 26
58 36 31
58 37 6
58 38 39
58 39 36
58 40 40
58 41 19
58 42 19
58 43 16
58 44 3
58 45 34
58 46 14
58 47 34
58 48 9
58 49 29
58 50 36
58 51 24
58 52 4
58 53 14
58 54 1
58 55 27
58 56 34
58 57 24
59 0 29
59 1 12
59 2 21
59 3 29
59 4 1
59 5 15
59 6 23
59 7 13
59 8 1
59 9 26
59 10 34
59 11 31
59 12 32
59 13 22
59 14 3
59 15 9
59 16 14
59 17 21
59 18 38
59 19 25
59 20 19
59 21 30
59 22 13
59 23 21
59 24 19
59 25 23
59 26 35
59 27 20
59 28 8
59 29 25
59 30 22
59 31 23
59 32 31
59 33 36
59 34 17
59 35 37
59 36 29
59 37 10
59 38 1
59 39 30
59 40 28
59 41 22
59 42 37
59 43 3
59 44 38
59 45 2
59 46 18
59 47 33
59 48 2
59 49 29
59 50 29
59 51 24
59 52 30
59 53 37
59 54 11
59 55 36
59 56 36
59 57 14
59 58 3
60 0 23
60 1 27
60 2 4
60 3 23
60 4 38
60 5 30
60 6 30
60 7 20
60 8 38
60 9 3
60 10 6
60 11 32
60 12 35
60 13 10
60 14 29
60 15 25
60 16 2
60 17 40
60 18 22
60 19 2
60 20 2
60 21 37
60 22 11
60 23 27
60 24 27
60 25 22
60 26 25
60 27 21
60 28 22
60 29 27
60 30 9
60 31 4
60 32 6
60 33 3
60 34 2
60 35 4
60 36 29
60 37 14
60 38 15
60 39 7
60 40 3
60 41 23
60 42 19
60 43 10
60 44 26
60 45 30
60 46 8
60 47 24
60 48 39
60 49 11
60 50 40
60 51 8
60 52 29
60 53 4
60 54 23
60 55 36
60 56 24
60 57 10
60 58 26
60 59 10
61 0 8
61 1 30
61 2 33
61 3 10
61 4 10
61 5 6
61 6 25
61 7 18
61 8 38
61 9 12
61 10 29
61 11 31
61 12 23
61 13 4
61 14 26
61 15 13
61 16 2
61 17 5
61 18 35
61 19 7
61 20 25
61 21 24
61 22 7
61 23 6
61 24 26
61 25 5
61 26 3
61 27 9
61 28 7
61 29 32
61 30 17
61 31 3
61 32 28
61 33 3
61 34 6
61 35 13
61 36 16
61 37 17
61 38 20
61 39 31
61 40 34
61 41 3
61 42 24
61 43 37
61 44 31
61 45 14
61 46 17
61 47 11
61 48 14
61 49 23
61 50 28
61 51 1
61 52 14
61 53 35
61 54 35
61 55 37
61 56 40
61 57 23
61 58 24
61 59 25
61 60 13
62 0 15
62 1 7
62 2 29
62 3 8
62 4 15
62 5 33
62 6 12
62 7 34
62 8 33
62 9 38
62 10 32
62 11 40
62 12 23
62 13 24
62 14 17
62 15 9
62 16 28
62 17 34
62 18 8
62 19 6
62 20 18
62 21 30
62 22 33
62 23 12
62 24 30
62 25 4
62 26 32
62 27 13
62 28 29
62 29 16
62 30 3
62 31 11
62 32 6
62 33 7
62 34 26
62 35 15
62 36 28
62 37 8
62 38 38
62 39 28
62 40 16
62 41 40
62 42 15
62 43 20
62 44 25
62 45 17
62 46 31
62 47 36
62 48 29
62 49 25
62 50 32
62 51 24
62 52 30
62 53 19
62 54 37
62 55 22
62 56 12
62 57 11
62 58 4
62 59 30
62 60 12
62 61 14
63 0 2
63 1 29
63 2 33
63 3 32
63 4 30
63 5 16
63 6 7
63 7 23
63 8 23
63 9 2
63 10 37
63 11 26
63 12 5
63 13 1
63 14 36
63 15 38
63 16 37
63 17 12
63 18 38
63 19 5
63 20 2
63 21 24
63 22 35
63 23 31
63 24 39
63 25 13
63 26 27
63 27 9
63 28 30
63 29 6
63 30 38
63 31 5
63 32 12
63 33 3
63 34 15
63 35 29
63 36 37
63 37 12
63 38 26
63 39 11
63 40 24
63 41 7
63 42 23
63 43 38
63 44 9
63 45 7
63 46 14
63 47 14
63 48 31
63 49 27
63 50 17
63 51 25
63 52 30
63 53 33
63 54 8
63 55 9
63 56 22
63 57 39
63 58 30
63 59 19
63 60 39
63 61 10
63 62 3
64 0 11
64 1 18
64 2 16
64 3 25
64 4 3
64 5 32
64 6 2
64 7 9
64 8 35
64 9 9
64 10 28
64 11 24
64 12 7
64 13 36
64 14 18
64 15 37
64 16 17
64 17 3
64 18 2
64 19 18
64 20 15
64 21 10
64 22 40
64 23 33
64 24 6
64 25 37
64 26 15
64 27 32
64 28 16
64 29 40
64 30 36
64 31 17
64 32 20
64 33 24
64 34 33
64 35 39
64 36 24
64 37 16
64 38 27
64 39 4
64 40 12
64 41 5
64 42 27
64 43 37
64 44 2
64 45 9
64 46 18
64 47 11
64 48 22
64 49 32
64 50 23
64 51 7
64 52 35
64 53 6
64 54 1
64 55 6
64 56 35
64 57 24
64 58 35
64 59 3
64 60 13
64 61 24
64 62 4
64 63 28
65 0 28
65 1 6
65 2 18
65 3 1
65 4 31
65 5 30
65 6 16
65 7 4
65 8 1
65 9 3
65 10 34
65 11 34
65 12 32
65 13 26
65 14 5
65 15 15
65 16 38
65 17 2
65 18 21
65 19 12
65 20 38
65 21 33
65 22 2
65 23 24
65 24 34
65 25 40
65 26 23
65 27 24
65 28 27
65 29 36
65 30 7
65 31 11
65 32 9
65 33 10
65 34 31
65 35 9
65 36 2
65 37 22
65 38 37
65 39 14
65 40 8
65 41 25
65 42 28
65 43 30
65 44 14
65 45 31
65 46 32
65 47 6
65 48 33
65 49 21
65 50 18
65 51 29
65 52 35
65 53 8
65 54 32
65 55 7
65 56 29
65 57 8
65 58 17
65 59 28
65 60 8
65 61 33
65 62 2
65 63 34
65 64 37
66 0 25
66 1 22
66 2 23
66 3 35
66 4 35
66 5 19
66 6 39
66 7 35
66 8 29
66 9 28
66 10 25
66 11 23
66 12 38
66 13 19
66 14 9
66 15 20
66 16 14
66 17 21
66 18 6
66 19 26
66 20 16
66 21 22
66 22 11
66 23 25
66 24 20
66 25 18
66 26 30
66 27 5
66 28 1
66 29 11
66 30 3
66 31 15
66 32 5
66 33 10
66 34 7
66 35 40
66 36 30
66 37 40
66 38 29
66 39 40
66 40 16
66 41 17
66 42 33
66 43 12
66 44 35
66 45 32
66 46 18
66 47 24
66 48 23
66 49 17
66 50 33
66 51 1
66 52 13
66 53 16
66 54 7
66 55 9
66 56 3
66 57 33
66 58 31
66 59 7
66 60 12
66 61 8
66 62 8
66 63 2
66 64 18
66 65 38
67 0 1
67 1 22
67 2 36
67 3 10
67 4 25
67 5 32
67 6 19
67 7 27
67 8 28
67 9 20
67 10 16
67 11 16
67 12 27
67 13 9
67 14 36
67 15 29
67 16 5
67 17 31
67 18 15
67 19 17
67 20 32
67 21 40
67 22 28
67 23 1
67 24 3
67 25 37
67 26 13
67 27 9
67 28 32
67 29 17
67 30 31
67 31 26
67 32 23
67 33 7
67 34 12
67 35 3
67 36 26
67 37 28
67 38 2
67 39 28
67 40 10
67 41 23
67 42 1
67 43 37
67 44 13
67 45 2
67 46 14
67 47 36
67 48 9
67 49 29
67 50 4
67 51 29
67 52 14
67 53 10
67 54 13
67 55 4
67 56 1
67 57 33
67 58 17
67 59 34
67 60 14
67 61 7
67 62 13
67 63 16
67 64 18
67 65 9
67 66 38
68 0 20
68 1 15
68 2 28
68 3 15
68 4 14
68 5 30
68 6 14
68 7 27
68 8 12
68 9 4
68 10 20
68 11 36
68 12 24
68 13 34
68 14 1
68 15 31
68 16 29
68 17 37
68 18 13
68 19 34
68 20 28
68 21 21
68 22 16
68 23 40
68 24 34
68 25 37
68 26 12
68 27 10
68 28 17
68 29 1
68 30 37
68 31 17
68 32 33
68 33 24
68 34 14
68 35 13
68 36 6
68 37 21
68 38 12
68 39 12
68 40 29
68 41 25
68 42 36
68 43 6
68 44 27
68 45 30
68 46 12
68 47 8
68 48 10
68 49 10
68 50 33
68 51 24
68 52 12
68 53 33
68 54 14
68 55 17
68 56 20
68 57 34
68 58 10
68 59 1
68 60 12
68 61 7
68 62 21
68 63 23
68 64 36
68 65 4
68 66 40
68 67 8
69 0 21
69 1 16
69 2 30
69 3 20
69 4 2
69 5 3
69 6 29
69 7 39
69 8 17
69 9 21
69 10 26
69 11 10
69 12 27
69 13 9
69 14 27
69 15 7
69 16 13
69 17 6
69 18 34
69 19 22
69 20 27
69 21 14
69 22 9
69 23 12
69 24 4
69 25 34
69 26 15
69 27 10
69 28 8
69 29 6
69 30 39
69 31 10
69 32 38
69 33 22
69 34 36
69 35 11
69 36 28
69 37 35
69 38 24
69 39 6
69 40 30
69 41 6
69 42 3
69 43 22
69 44 4
69 45 29
69 46 13
69 47 40
69 48 14
69 49 9
69 50 22
69 51 14
69 52 40
69 53 9
69 54 7
69 55 17
69 56 22
69 57 31
69 58 10
69 59 31
69 60 1
69 61 12
69 62 27
69 63 18
69 64 6
69 65 2
69 66 6
69 67 24
69 68 2
